000 000 000 000 000 000 000 000 -99 -99 -99 -99 -99 000 000 -99 -99 -99 000 000 000 000 000 -99 -99 -99 000 000 -99 -99 -99
000 000 000 000 000 000 000 000 -99 -99 -99 -99 -99 000 000 000 -99 -99 -99 000 000 000 000 000 000 -99 -99 000 -99 -99 -99
000 000 000 000 000 000 000 000 -99 -99 -99 -99 -99 -99 000 000 -99 -99 -99 000 000 000 000 000 000 -99 -99 -99 -99 -99 -99
000 000 000 000 000 000 000 -99 000 -99 -99 000 -99 -99 000 000 -99 -99 -99 000 000 000 000 000 000 -99 -99 -99 -99 -99 -99
000 000 000 000 000 000 000 000 000 000 -99 000 000 000 000 000 -99 -99 -99 -99 000 000 000 000 000 000 -99 -99 -99 -99 -99
000 000 000 000 000 000 000 -99 000 000 -99 -99 000 000 000 000 -99 -99 -99 -99 000 000 000 000 000 -99 -99 -99 -99 -99 -99
000 000 000 000 000 000 000 000 000 000 000 -99 000 000 000 000 000 000 -99 -99 000 -99 000 000 000 -99 -99 -99 -99 -99 -99
000 000 000 000 000 000 000 -99 000 000 000 -99 -99 000 000 000 000 000 000 000 000 000 000 000 -99 -99 -99 -99 -99 -99 -99
000 000 000 000 000 000 000 -99 000 000 000 -99 -99 -99 -99 -99 -99 000 000 000 000 -99 -99 000 -99 -99 -99 -99 -99 -99 -99
000 000 000 000 000 000 -99 -99 000 000 000 -99 -99 -99 -99 -99 000 000 000 -99 000 000 -99 -99 000 -99 -99 -99 -99 -99 -99
000 000 000 000 000 -99 000 000 000 000 000 000 -99 -99 000 000 -99 000 000 -99 -99 000 -99 -99 000 -99 -99 -99 000 000 000
000 000 000 000 000 000 -99 000 000 000 000 000 -99 -99 000 000 000 000 000 -99 -99 -99 -99 -99 000 -99 -99 -99 000 000 000
000 000 000 000 000 000 000 000 -99 000 000 000 -99 000 000 000 000 000 000 000 -99 -99 -99 -99 000 -99 -99 -99 000 000 000
000 000 000 000 000 000 000 -99 -99 -99 -99 -99 -99 -99 000 000 000 -99 000 000 -99 000 -99 000 000 -99 000 -99 000 000 000
000 000 000 000 000 000 000 -99 -99 -99 -99 -99 -99 000 000 000 000 000 000 000 -99 000 -99 000 000 000 000 -99 000 000 -99
000 -99 000 000 000 000 000 000 000 -99 -99 -99 -99 000 -99 000 000 000 000 -99 -99 000 -99 000 000 000 000 -99 000 000 -99
000 -99 -99 -99 -99 000 000 000 000 -99 -99 -99 -99 000 000 000 000 000 -99 -99 -99 -99 000 000 000 000 000 000 000 000 -99
000 000 000 -99 -99 -99 000 000 000 000 -99 -99 -99 000 000 000 000 000 -99 -99 -99 000 000 000 000 000 000 -99 -99 000 -99
000 000 000 -99 -99 -99 000 000 000 -99 -99 -99 000 000 000 000 000 000 -99 -99 000 000 000 -99 -99 000 000 -99 -99 000 000
000 000 000 -99 -99 -99 000 000 000 000 000 000 000 000 000 000 000 000 -99 000 000 000 000 -99 -99 -99 -99 -99 -99 -99 000
000 000 000 000 -99 -99 -99 000 000 000 000 000 000 000 000 000 000 000 000 000 000 000 000 -99 -99 -99 -99 -99 -99 -99 -99
000 000 000 000 000 -99 -99 000 000 000 -99 000 000 000 000 000 000 000 000 000 000 000 000 -99 -99 -99 -99 -99 -99 -99 -99
000 000 000 000 000 000 000 000 000 -99 -99 -99 000 000 000 000 000 000 000 000 000 000 000 -99 -99 -99 -99 -99 -99 -99 -99
000 000 000 000 000 000 -99 000 000 -99 -99 -99 000 000 000 000 000 000 000 000 -99 000 000 -99 -99 -99 -99 -99 -99 -99 -99
000 000 000 000 000 000 000 000 000 -99 -99 -99 000 000 000 000 000 000 000 000 000 000 000 -99 -99 -99 -99 -99 -99 -99 -99
000 000 000 000 000 000 000 000 000 -99 -99 -99 000 000 000 000 000 000 000 000 000 000 000 -99 -99 -99 -99 -99 -99 -99 000
000 000 000 000 000 000 000 000 000 000 000 -99 -99 000 000 -99 000 000 000 000 000 000 000 -99 -99 -99 -99 -99 -99 -99 -99
000 000 000 000 000 000 000 000 000 000 -99 -99 -99 000 -99 000 000 000 000 000 000 001 000 -99 -99 -99 -99 -99 -99 000 000
000 000 000 000 000 000 000 000 000 000 -99 -99 -99 000 000 000 000 000 000 000 000 000 -99 001 -99 -99 004 006 002 000 001
000 000 000 000 000 000 000 000 000 000 -99 -99 -99 000 000 000 000 000 000 000 000 001 -99 001 003 002 005 007 005 -99 003
000 000 000 000 000 000 000 000 000 000 -99 -99 -99 000 000 000 000 000 000 000 000 000 001 002 003 003 007 007 006 009 007
000 000 000 000 000 -99 -99 000 000 000 000 -99 000 000 000 -99 000 000 000 000 000 001 001 003 004 006 008 010 012 008 010
000 000 000 000 000 000 000 000 000 -99 000 -99 -99 000 000 -99 000 000 000 000 000 001 002 002 005 010 011 010 014 010 013
000 000 000 000 000 000 000 000 000 000 000 000 000 000 000 000 000 000 000 001 000 001 002 001 005 018 019 013 018 016 015
000 000 000 000 000 000 000 000 000 000 000 000 000 000 000 000 000 000 000 000 000 002 002 003 007 013 015 012 021 030 021
000 000 -99 000 000 000 000 000 000 000 000 000 000 000 000 000 000 000 000 000 001 001 001 004 007 008 010 009 013 016 020
000 000 000 000 000 000 000 000 000 000 000 000 000 000 000 000 000 000 000 000 000 001 001 003 003 006 005 007 007 011 014
000 000 000 000 000 000 000 000 000 000 000 000 000 000 000 000 000 000 000 000 000 001 001 003 003 002 006 005 005 005 007
000 000 000 000 000 000 000 000 000 000 000 000 000 000 000 000 000 000 000 000 000 000 001 001 001 001 005 005 004 005 004
000 000 000 000 000 000 000 001 000 000 000 000 000 000 000 000 000 000 000 000 000 000 000 000 001 001 002 003 003 003 003
000 000 000 000 000 000 000 001 000 000 000 000 000 000 000 000 000 000 000 000 000 000 000 000 000 000 002 003 002 002 007
000 000 000 000 000 000 001 000 000 001 000 001 000 000 000 000 000 000 000 000 000 000 000 000 000 000 001 001 002 003 006
000 000 000 000 000 000 000 000 000 001 001 000 000 000 000 000 000 000 000 000 -99 000 000 000 000 000 000 001 000 002 006
000 000 000 000 000 000 000 000 000 000 000 001 000 000 000 000 000 000 000 000 000 000 000 000 000 000 000 000 001 002 004
000 000 000 000 000 000 000 000 000 000 000 000 000 000 000 000 000 000 000 -99 000 000 000 000 -99 000 000 000 001 -99 004
000 000 000 000 000 000 000 000 000 000 000 000 000 000 000 -99 000 000 -99 -99 000 000 -99 000 -99 -99 000 000 -99 -99 004
000 -99 -99 -99 -99 000 000 000 000 000 000 000 000 000 000 -99 -99 -99 -99 -99 000 000 000 000 000 000 000 -99 -99 001 003
000 000 000 -99 -99 -99 000 -99 000 000 000 000 000 000 000 -99 -99 -99 -99 -99 000 000 000 000 000 000 000 -99 -99 001 001
000 000 000 000 000 -99 -99 -99 -99 -99 -99 -99 000 000 -99 -99 -99 -99 -99 000 000 000 000 000 -99 -99 -99 000 -99 000 000
000 000 000 000 000 -99 -99 -99 -99 000 -99 000 000 000 -99 -99 -99 -99 -99 000 000 000 000 000 -99 -99 -99 000 -99 000 000
000 000 000 000 000 -99 -99 000 000 000 -99 -99 000 000 -99 -99 -99 -99 000 000 000 000 -99 -99 -99 -99 000 -99 -99 000 000
000 000 000 000 -99 -99 -99 000 000 000 -99 -99 000 000 -99 -99 -99 -99 -99 000 000 -99 -99 -99 -99 -99 -99 -99 -99 000 000
000 000 000 -99 -99 -99 -99 -99 -99 -99 -99 000 -99 -99 -99 -99 -99 -99 -99 000 000 -99 -99 -99 -99 -99 -99 -99 -99 -99 -99
000 000 000 000 -99 -99 -99 -99 -99 -99 -99 -99 -99 -99 -99 -99 -99 -99 -99 000 -99 -99 -99 -99 -99 -99 -99 -99 -99 -99 -99
000 001 000 000 -99 -99 -99 -99 -99 -99 -99 -99 -99 -99 -99 -99 -99 -99 -99 -99 -99 -99 -99 -99 -99 -99 -99 -99 -99 -99 -99
